\ Model Cl_50_Ins_5.lp
\ LP format - for model browsing. Use MPS format to capture full model detail.
Maximize
 
Subject To
 obj1: y[0] = 0
 obj2: y[1] = 0
 obj1_Exp: - y[0] + 98 x[0] + 94 x[1] + 93 x[2] + 88 x[3] + 88 x[4]
   + 84 x[5] + 83 x[6] + 83 x[7] + 77 x[8] + 73 x[9] + 72 x[10] + 68 x[11]
   + 68 x[12] + 64 x[13] + 63 x[14] + 63 x[15] + 62 x[16] + 61 x[17]
   + 60 x[18] + 59 x[19] + 58 x[20] + 56 x[21] + 55 x[22] + 54 x[23]
   + 53 x[24] + 50 x[25] + 47 x[26] + 43 x[27] + 42 x[28] + 39 x[29]
   + 38 x[30] + 37 x[31] + 37 x[32] + 36 x[33] + 31 x[34] + 31 x[35]
   + 29 x[36] + 27 x[37] + 27 x[38] + 25 x[39] + 24 x[40] + 23 x[41]
   + 22 x[42] + 20 x[43] + 19 x[44] + 19 x[45] + 19 x[46] + 15 x[47]
   + 9 x[48] + 3 x[49] = 0
 obj2_Exp: - y[1] + 16 x[0] + 94 x[1] + 65 x[2] + 10 x[3] + 10 x[4]
   + 72 x[5] + 69 x[6] + 67 x[7] + 2 x[8] + 97 x[9] + 24 x[10] + 68 x[11]
   + 25 x[12] + 45 x[13] + 3 x[14] + 18 x[15] + 39 x[16] + 49 x[17]
   + 15 x[18] + 85 x[19] + 92 x[20] + 60 x[21] + 77 x[22] + 31 x[23]
   + 77 x[24] + 54 x[25] + 45 x[26] + 10 x[27] + 79 x[28] + 99 x[29]
   + 30 x[30] + 89 x[31] + 73 x[32] + 49 x[33] + 3 x[34] + 32 x[35]
   + 57 x[36] + 50 x[37] + 52 x[38] + 87 x[39] + 64 x[40] + 64 x[41]
   + 97 x[42] + 11 x[43] + 18 x[44] + 45 x[45] + 10 x[46] + 29 x[47]
   + 73 x[48] + 52 x[49] = 0
 Budget: 108 x[0] + 104 x[1] + 103 x[2] + 98 x[3] + 98 x[4] + 94 x[5]
   + 93 x[6] + 93 x[7] + 87 x[8] + 83 x[9] + 82 x[10] + 78 x[11] + 78 x[12]
   + 74 x[13] + 73 x[14] + 73 x[15] + 72 x[16] + 71 x[17] + 70 x[18]
   + 69 x[19] + 68 x[20] + 66 x[21] + 65 x[22] + 64 x[23] + 63 x[24]
   + 60 x[25] + 57 x[26] + 53 x[27] + 52 x[28] + 49 x[29] + 48 x[30]
   + 47 x[31] + 47 x[32] + 46 x[33] + 41 x[34] + 41 x[35] + 39 x[36]
   + 37 x[37] + 37 x[38] + 35 x[39] + 34 x[40] + 33 x[41] + 32 x[42]
   + 30 x[43] + 29 x[44] + 29 x[45] + 29 x[46] + 25 x[47] + 19 x[48]
   + 13 x[49] <= 903
Bounds
Binaries
 x[0] x[1] x[2] x[3] x[4] x[5] x[6] x[7] x[8] x[9] x[10] x[11] x[12] x[13]
 x[14] x[15] x[16] x[17] x[18] x[19] x[20] x[21] x[22] x[23] x[24] x[25]
 x[26] x[27] x[28] x[29] x[30] x[31] x[32] x[33] x[34] x[35] x[36] x[37]
 x[38] x[39] x[40] x[41] x[42] x[43] x[44] x[45] x[46] x[47] x[48] x[49]
Generals
 y[0] y[1]
End
